c preprocessed version of 1ptf_graph, 87 vertices, 1137 edges
p td 87 1137
85 86
84 86
84 85
83 86
83 85
83 84
82 85
82 84
82 83
81 86
81 85
81 84
81 83
81 82
80 86
80 85
80 84
80 83
80 82
80 81
79 86
79 85
79 83
79 82
79 81
79 80
78 86
78 83
78 82
78 81
78 80
78 79
77 86
77 82
77 81
77 80
77 79
77 78
76 86
76 85
76 83
76 81
76 80
76 79
76 78
76 77
75 83
75 82
75 79
75 78
75 77
75 76
74 82
74 81
74 79
74 78
74 77
74 76
74 75
73 86
73 80
73 78
73 77
73 76
73 75
73 74
72 80
72 79
72 76
72 75
72 74
72 73
71 79
71 78
71 76
71 75
71 74
71 73
71 72
70 77
70 74
70 73
70 72
70 71
69 76
69 74
69 73
69 72
69 71
69 70
68 75
68 73
68 72
68 71
68 70
68 69
67 72
67 71
67 70
67 69
67 68
66 76
66 73
66 72
66 71
66 70
66 69
66 68
66 67
65 73
65 72
65 69
65 67
65 66
64 86
64 80
64 79
64 77
64 76
64 75
64 74
64 73
64 72
64 71
64 69
64 68
64 67
64 66
64 65
63 76
63 73
63 72
63 69
63 66
63 65
63 64
62 86
62 85
62 83
62 81
62 80
62 79
62 77
62 76
62 75
62 73
62 72
62 69
62 66
62 65
62 64
62 63
61 86
61 76
61 73
61 65
61 64
61 63
61 62
60 86
60 85
60 83
60 80
60 79
60 77
60 76
60 73
60 64
60 63
60 62
60 61
59 86
59 61
59 60
58 86
58 85
58 83
58 80
58 62
58 61
58 60
58 59
57 59
57 58
56 85
56 58
56 57
55 60
55 58
55 57
55 56
54 86
54 85
54 83
54 80
54 76
54 62
54 61
54 60
54 59
54 58
54 57
54 56
54 55
53 60
53 58
53 55
53 54
52 86
52 85
52 80
52 63
52 62
52 61
52 60
52 59
52 58
52 55
52 54
52 53
51 54
51 53
51 52
50 55
50 54
50 53
50 52
50 51
49 86
49 85
49 83
49 80
49 79
49 76
49 64
49 62
49 60
49 58
49 54
49 53
49 52
49 51
49 50
48 54
48 52
48 51
48 50
48 49
47 52
47 51
47 50
47 49
47 48
46 51
46 50
46 49
46 48
46 47
45 52
45 51
45 50
45 49
45 48
45 47
45 46
44 76
44 72
44 68
44 66
44 64
44 62
44 49
44 48
44 47
44 46
44 45
43 86
43 85
43 83
43 80
43 79
43 76
43 75
43 73
43 72
43 66
43 64
43 63
43 62
43 61
43 60
43 58
43 54
43 52
43 49
43 48
43 46
43 45
43 44
42 72
42 63
42 62
42 52
42 49
42 48
42 47
42 45
42 44
42 43
41 85
41 63
41 62
41 60
41 58
41 54
41 53
41 52
41 51
41 50
41 49
41 48
41 47
41 46
41 45
41 44
41 43
41 42
40 65
40 63
40 62
40 61
40 60
40 52
40 48
40 43
40 42
40 41
39 60
39 58
39 54
39 53
39 52
39 51
39 49
39 48
39 41
39 40
38 61
38 52
38 40
38 39
37 61
37 60
37 59
37 58
37 55
37 54
37 53
37 52
37 41
37 39
37 38
36 86
36 85
36 80
36 76
36 63
36 62
36 61
36 60
36 59
36 58
36 57
36 55
36 54
36 53
36 52
36 51
36 49
36 48
36 43
36 41
36 40
36 39
36 38
36 37
35 65
35 63
35 62
35 61
35 60
35 59
35 58
35 54
35 52
35 43
35 42
35 41
35 40
35 39
35 38
35 37
35 36
34 86
34 85
34 83
34 80
34 79
34 76
34 73
34 72
34 64
34 63
34 62
34 61
34 60
34 59
34 58
34 54
34 53
34 52
34 50
34 49
34 48
34 46
34 45
34 44
34 43
34 42
34 41
34 40
34 39
34 37
34 36
34 35
33 76
33 73
33 72
33 66
33 65
33 64
33 63
33 62
33 61
33 60
33 52
33 48
33 45
33 44
33 43
33 42
33 41
33 40
33 39
33 36
33 35
33 34
32 86
32 85
32 80
32 79
32 77
32 76
32 75
32 73
32 72
32 71
32 69
32 68
32 67
32 66
32 65
32 64
32 63
32 62
32 61
32 60
32 54
32 52
32 49
32 44
32 43
32 42
32 41
32 40
32 36
32 35
32 34
32 33
31 76
31 72
31 67
31 66
31 65
31 64
31 63
31 62
31 45
31 44
31 43
31 42
31 40
31 35
31 33
31 32
30 79
30 76
30 75
30 73
30 72
30 71
30 69
30 68
30 67
30 66
30 65
30 64
30 63
30 62
30 44
30 43
30 42
30 34
30 33
30 32
30 31
29 72
29 71
29 68
29 67
29 66
29 65
29 64
29 44
29 32
29 31
29 30
28 79
28 78
28 76
28 75
28 74
28 73
28 72
28 71
28 70
28 69
28 68
28 67
28 66
28 65
28 64
28 63
28 62
28 44
28 43
28 42
28 34
28 33
28 32
28 31
28 30
28 29
27 82
27 79
27 76
27 75
27 72
27 71
27 68
27 64
27 44
27 32
27 30
27 29
27 28
26 76
26 75
26 72
26 49
26 46
26 45
26 44
26 43
26 42
26 32
26 30
26 29
26 28
26 27
25 86
25 85
25 83
25 80
25 79
25 77
25 76
25 75
25 73
25 72
25 69
25 66
25 64
25 63
25 62
25 60
25 54
25 52
25 49
25 45
25 44
25 43
25 42
25 41
25 36
25 34
25 33
25 32
25 31
25 30
25 28
25 27
25 26
24 86
24 85
24 83
24 82
24 80
24 79
24 78
24 76
24 75
24 74
24 72
24 71
24 64
24 62
24 49
24 43
24 34
24 32
24 30
24 28
24 27
24 26
24 25
23 83
23 79
23 75
23 46
23 27
23 26
23 25
23 24
22 85
22 83
22 80
22 79
22 76
22 62
22 60
22 54
22 52
22 50
22 49
22 48
22 47
22 46
22 45
22 44
22 43
22 42
22 41
22 36
22 34
22 32
22 26
22 25
22 24
22 23
21 86
21 85
21 84
21 83
21 82
21 80
21 79
21 78
21 77
21 76
21 75
21 73
21 72
21 64
21 62
21 60
21 58
21 54
21 52
21 49
21 46
21 44
21 43
21 41
21 36
21 34
21 32
21 30
21 28
21 26
21 25
21 24
21 23
21 22
20 85
20 84
20 83
20 82
20 80
20 79
20 78
20 76
20 75
20 49
20 46
20 27
20 25
20 24
20 23
20 22
20 21
19 83
19 50
19 49
19 47
19 46
19 26
19 24
19 23
19 22
19 21
19 20
18 86
18 85
18 83
18 80
18 79
18 76
18 62
18 60
18 58
18 54
18 53
18 52
18 50
18 49
18 48
18 47
18 46
18 45
18 43
18 41
18 36
18 34
18 32
18 25
18 23
18 22
18 21
18 20
18 19
17 86
17 85
17 84
17 83
17 82
17 80
17 79
17 76
17 62
17 60
17 58
17 56
17 54
17 49
17 43
17 36
17 34
17 25
17 24
17 22
17 21
17 20
17 19
17 18
16 85
16 84
16 83
16 82
16 79
16 46
16 24
16 23
16 21
16 20
16 19
16 18
16 17
15 85
15 55
15 50
15 49
15 46
15 19
15 18
15 17
15 16
14 85
14 58
14 56
14 55
14 54
14 53
14 52
14 51
14 50
14 49
14 46
14 36
14 22
14 21
14 19
14 18
14 17
14 16
14 15
13 86
13 85
13 83
13 80
13 79
13 76
13 62
13 60
13 59
13 58
13 56
13 55
13 54
13 52
13 50
13 49
13 48
13 46
13 43
13 41
13 36
13 34
13 32
13 25
13 24
13 22
13 21
13 20
13 19
13 18
13 17
13 15
13 14
12 85
12 60
12 58
12 57
12 56
12 55
12 54
12 53
12 52
12 50
12 49
12 36
12 34
12 21
12 18
12 17
12 15
12 14
12 13
11 85
11 84
11 83
11 56
11 55
11 54
11 21
11 20
11 18
11 17
11 16
11 15
11 14
11 13
11 12
10 85
10 84
10 57
10 56
10 55
10 17
10 15
10 14
10 12
10 11
9 86
9 85
9 84
9 83
9 80
9 79
9 60
9 58
9 56
9 54
9 49
9 21
9 20
9 18
9 17
9 16
9 15
9 14
9 13
9 12
9 11
9 10
8 86
8 85
8 84
8 81
8 80
8 59
8 57
8 56
8 54
8 17
8 13
8 10
8 9
7 86
7 85
7 83
7 80
7 79
7 76
7 62
7 61
7 60
7 59
7 58
7 57
7 56
7 55
7 54
7 53
7 52
7 49
7 43
7 41
7 37
7 36
7 34
7 25
7 22
7 21
7 18
7 17
7 14
7 13
7 12
7 11
7 9
7 8
6 86
6 85
6 80
6 62
6 61
6 60
6 59
6 58
6 57
6 56
6 54
6 37
6 36
6 13
6 8
6 7
5 86
5 85
5 83
5 81
5 80
5 79
5 77
5 76
5 73
5 64
5 62
5 61
5 60
5 59
5 58
5 54
5 52
5 49
5 43
5 41
5 36
5 35
5 34
5 32
5 25
5 24
5 21
5 18
5 17
5 13
5 9
5 8
5 7
5 6
4 86
4 80
4 77
4 76
4 73
4 63
4 62
4 61
4 60
4 59
4 58
4 40
4 36
4 35
4 7
4 6
4 5
3 86
3 85
3 81
3 80
3 77
3 76
3 75
3 74
3 73
3 72
3 70
3 69
3 64
3 63
3 62
3 61
3 60
3 59
3 43
3 34
3 32
3 28
3 25
3 21
3 13
3 7
3 6
3 5
3 4
2 76
2 73
2 65
2 64
2 63
2 62
2 61
2 60
2 59
2 40
2 35
2 34
2 33
2 31
2 4
2 3
1 80
1 77
1 76
1 74
1 73
1 72
1 71
1 70
1 69
1 68
1 66
1 65
1 64
1 63
1 62
1 61
1 43
1 33
1 32
1 30
1 28
1 25
1 5
1 4
1 3
1 2
0 73
0 69
0 66
0 65
0 64
0 63
0 62
0 61
0 40
0 35
0 33
0 32
0 31
0 30
0 3
0 2
0 1
